%rwf=/Storage01/hugo/chalcona_deut
%int=/Storage01/hugo/chalcona_deut
%d2e=/Storage01/hugo/chalcona_deut
%nosave
%nprocshared=8
%mem=16GB
%chk=enol_deut
# opt freq=noraman X3LYP/6-31+G(d) volume scrf=(smd,solvent=water) scf=xqc 

enol_deut

-1 1
 C                  0.27025000    0.00670100   -0.01017100
 C                 -0.46394900   -1.18174900    0.14920900
 C                 -1.86191900   -1.17717000    0.17354900
 C                 -2.56522000    0.02244900    0.02112900
 C                 -1.85103000    1.21368000   -0.15521100
 C                 -0.45337000    1.20372100   -0.17050100
 C                  1.79058000   -0.06355800   -0.02459100
 C                  2.50466000    1.06535200    0.33005900
 O                  2.30463100   -1.20723800   -0.35332100
 H(Iso=2)           2.02292900    1.98652200    0.63885900
 H                  0.08613200   -2.11167900    0.25184900
 H                 -2.40272800   -2.11083100    0.30786900
 H                 -2.38362100    2.15172900   -0.29064100
 H                  0.08022900    2.13619100   -0.32705100
 H(Iso=2)           3.59176000    1.03996300    0.33381900
 H                 -3.65176000    0.02945900    0.03103900


